c File: instances/34_0.25_3.col
c
c Description: Random graph of size 34 vertices and P(0.25) of edges between any two vertices.
p col 34 561
e 1 9
e 1 11
e 1 15
e 1 19
e 1 20
e 1 28
e 1 29
e 1 34
e 2 5
e 2 8
e 2 12
e 2 13
e 2 17
e 2 21
e 2 25
e 2 30
e 2 32
e 3 9
e 3 11
e 3 25
e 3 27
e 3 31
e 4 15
e 4 16
e 4 26
e 4 28
e 4 31
e 5 18
e 5 28
e 5 29
e 5 32
e 5 33
e 6 9
e 6 11
e 6 12
e 6 13
e 6 14
e 6 20
e 6 23
e 6 26
e 6 27
e 6 28
e 6 30
e 6 32
e 7 9
e 7 10
e 7 22
e 7 27
e 7 30
e 7 32
e 8 15
e 8 17
e 9 15
e 9 22
e 9 26
e 9 27
e 9 31
e 10 12
e 10 18
e 10 20
e 11 21
e 11 22
e 11 23
e 11 29
e 12 31
e 12 32
e 13 22
e 13 23
e 13 24
e 13 25
e 13 26
e 13 29
e 13 33
e 14 22
e 14 24
e 14 26
e 14 30
e 15 18
e 15 19
e 15 29
e 15 31
e 15 32
e 15 34
e 16 28
e 16 29
e 16 32
e 16 34
e 17 18
e 17 21
e 17 23
e 17 31
e 18 29
e 18 30
e 19 20
e 19 30
e 19 31
e 20 21
e 20 26
e 20 27
e 20 28
e 20 32
e 20 33
e 20 34
e 21 24
e 21 28
e 21 29
e 22 27
e 22 29
e 22 33
e 23 24
e 23 26
e 23 27
e 23 30
e 23 32
e 24 34
e 25 33
e 26 28
e 26 32
e 27 29
e 27 31
e 27 32
e 29 30
e 29 32
e 30 31
e 30 32